0 0 0 0
0 1 0 0
0 2 0 0
0 3 0 0
0 4 0 1
0 5 0 3
0 6 0 4
0 7 1 3
0 8 0 8
0 9 0 3
0 10 0 5
0 11 0 5
0 12 1 5
0 13 0 7
0 14 0 11
0 15 0 9
0 16 0 1
0 17 2 5
0 18 0 11
0 19 0 13
0 20 1 3
0 21 0 9
0 22 0 12
0 23 0 9
0 24 0 14
0 25 0 18
0 26 0 13
0 27 0 14
0 28 1 16
0 29 0 15
0 30 0 20
0 31 0 24
